\* Selectedbooks *\
Maximize
OBJ: x0 + x1 + x10 + x11 + x12 + x13 + x14 + x15 + x16 + x17 + x18 + x19 + x2
 + x20 + x21 + x22 + x23 + x24 + x25 + x26 + x27 + x28 + x29 + x3 + x30 + x31
 + x32 + x33 + x34 + x35 + x36 + x37 + x38 + x39 + x4 + x40 + x41 + x42 + x43
 + x44 + x45 + x46 + x47 + x48 + x49 + x5 + x50 + x51 + x52 + x53 + x54 + x55
 + x56 + x57 + x58 + x59 + x6 + x60 + x61 + x62 + x63 + x64 + x65 + x66 + x67
 + x68 + x69 + x7 + x70 + x71 + x72 + x73 + x74 + x75 + x76 + x77 + x78 + x79
 + x8 + x80 + x81 + x82 + x83 + x84 + x85 + x86 + x87 + x88 + x89 + x9 + x90
 + x91 + x92 + x93 + x94 + x95 + x96 + x97 + x98 + x99
Subject To
_C1: 240 x0 + 333 x1 + 289 x10 + 534 x11 + 499 x12 + 417 x13 + 276 x14
 + 268 x15 + 1037 x16 + 144 x17 + 542 x18 + 500 x19 + 419 x2 + 451 x20
 + 420 x21 + 309 x22 + 288 x23 + 224 x24 + 344 x25 + 260 x26 + 256 x27
 + 424 x28 + 291 x29 + 342 x3 + 640 x30 + 240 x31 + 368 x32 + 320 x33
 + 240 x34 + 328 x35 + 368 x36 + 2704 x37 + 685 x38 + 76 x39 + 539 x4
 + 152 x40 + 389 x41 + 240 x42 + 144 x43 + 224 x44 + 672 x45 + 248 x46
 + 160 x47 + 320 x48 + 601 x49 + 353 x5 + 448 x50 + 244 x51 + 478 x52
 + 195 x53 + 48 x54 + 196 x55 + 128 x56 + 400 x57 + 288 x58 + 160 x59 + 265 x6
 + 698 x60 + 416 x61 + 245 x62 + 304 x63 + 198 x64 + 121 x65 + 160 x66
 + 535 x67 + 320 x68 + 400 x69 + 208 x7 + 296 x70 + 406 x71 + 197 x72
 + 492 x73 + 372 x74 + 489 x75 + 272 x76 + 672 x77 + 51 x78 + 194 x79 + 288 x8
 + 192 x80 + 476 x81 + 383 x82 + 628 x83 + 498 x84 + 197 x85 + 260 x86
 + 260 x87 + 448 x88 + 352 x89 + 576 x9 + 192 x90 + 272 x91 + 200 x92
 + 240 x93 + 291 x94 + 498 x95 + 576 x96 + 481 x97 + 382 x98 + 541 x99 = 16416
_C2: 240 x0 + 333 x1 + 289 x10 + 534 x11 + 499 x12 + 417 x13 + 276 x14
 + 268 x15 + 1037 x16 + 144 x17 + 542 x18 + 500 x19 + 419 x2 + 451 x20
 + 420 x21 + 309 x22 + 288 x23 + 224 x24 + 344 x25 + 260 x26 + 256 x27
 + 424 x28 + 291 x29 + 342 x3 + 640 x30 + 240 x31 + 368 x32 + 320 x33
 + 240 x34 + 328 x35 + 368 x36 + 2704 x37 + 685 x38 + 76 x39 + 539 x4
 + 152 x40 + 389 x41 + 240 x42 + 144 x43 + 224 x44 + 672 x45 + 248 x46
 + 160 x47 + 320 x48 + 601 x49 + 353 x5 + 448 x50 + 244 x51 + 478 x52
 + 195 x53 + 48 x54 + 196 x55 + 128 x56 + 400 x57 + 288 x58 + 160 x59 + 265 x6
 + 698 x60 + 416 x61 + 245 x62 + 304 x63 + 198 x64 + 121 x65 + 160 x66
 + 535 x67 + 320 x68 + 400 x69 + 208 x7 + 296 x70 + 406 x71 + 197 x72
 + 492 x73 + 372 x74 + 489 x75 + 272 x76 + 672 x77 + 51 x78 + 194 x79 + 288 x8
 + 192 x80 + 476 x81 + 383 x82 + 628 x83 + 498 x84 + 197 x85 + 260 x86
 + 260 x87 + 448 x88 + 352 x89 + 576 x9 + 192 x90 + 272 x91 + 200 x92
 + 240 x93 + 291 x94 + 498 x95 + 576 x96 + 481 x97 + 382 x98 + 541 x99 = 16416
Binaries
x0
x1
x10
x11
x12
x13
x14
x15
x16
x17
x18
x19
x2
x20
x21
x22
x23
x24
x25
x26
x27
x28
x29
x3
x30
x31
x32
x33
x34
x35
x36
x37
x38
x39
x4
x40
x41
x42
x43
x44
x45
x46
x47
x48
x49
x5
x50
x51
x52
x53
x54
x55
x56
x57
x58
x59
x6
x60
x61
x62
x63
x64
x65
x66
x67
x68
x69
x7
x70
x71
x72
x73
x74
x75
x76
x77
x78
x79
x8
x80
x81
x82
x83
x84
x85
x86
x87
x88
x89
x9
x90
x91
x92
x93
x94
x95
x96
x97
x98
x99
End
